p cnf 831 1105              
-1 -41 356 0
-356 360 0
-2 -43 358 0
-358 360 0
-360 362 0
-1 -42 357 0
-357 361 0
-2 -44 359 0
-359 361 0
-361 362 0
-362 -609 0
-10 -9 -77 0
77 -79 0
-9 78 0
-10 78 0
9 10 -78 0
78 -79 0
79 -83 0
-9 1 -80 0
80 -82 0
-10 2 -81 0
81 -82 0
82 -83 0
-3 83 -84 0
84 -93 0
-12 -11 -85 0
85 -87 0
-11 86 0
-12 86 0
11 12 -86 0
86 -87 0
87 -91 0
-11 1 -88 0
88 -90 0
-12 2 -89 0
89 -90 0
90 -91 0
-4 91 -92 0
92 -93 0
93 -609 0
-78 3 -94 0
94 -96 0
-86 4 -95 0
95 -96 0
96 -609 0
-13 1 -97 0
97 -99 0
-14 2 -98 0
98 -99 0
-3 99 -100 0
100 -105 0
-15 1 -101 0
101 -103 0
-16 2 -102 0
102 -103 0
-4 103 -104 0
104 -105 0
105 -609 0
-13 106 0
-14 106 0
-106 3 -108 0
108 -110 0
-15 107 0
-16 107 0
-107 4 -109 0
109 -110 0
110 -609 0
-18 -17 -111 0
111 -113 0
-17 112 0
-18 112 0
17 18 -112 0
112 -113 0
113 -117 0
-17 3 -114 0
114 -116 0
-18 4 -115 0
115 -116 0
116 -117 0
-5 117 -118 0
118 -127 0
-20 -19 -119 0
119 -121 0
-19 120 0
-20 120 0
19 20 -120 0
120 -121 0
121 -125 0
-19 3 -122 0
122 -124 0
-20 4 -123 0
123 -124 0
124 -125 0
-6 125 -126 0
126 -127 0
127 -609 0
-112 5 -128 0
128 -130 0
-120 6 -129 0
129 -130 0
130 -609 0
-22 -21 -131 0
131 -133 0
-21 132 0
-22 132 0
21 22 -132 0
132 -133 0
-5 133 -134 0
134 -139 0
-24 -23 -135 0
135 -137 0
-23 136 0
-24 136 0
23 24 -136 0
136 -137 0
-6 137 -138 0
138 -139 0
139 -609 0
-132 5 -140 0
140 -142 0
-136 6 -141 0
141 -142 0
142 -609 0
-25 1 -143 0
143 -147 0
-26 1 -144 0
144 -147 0
-27 2 -145 0
145 -147 0
-28 2 -146 0
146 -147 0
147 -155 0
-26 -25 -148 0
-1 148 -150 0
150 -154 0
-28 -27 -151 0
-2 151 -153 0
153 -154 0
154 -155 0
-5 155 -158 0
158 -175 0
-29 1 -159 0
159 -163 0
-30 1 -160 0
160 -163 0
-31 2 -161 0
161 -163 0
-32 2 -162 0
162 -163 0
163 -171 0
-30 -29 -164 0
-1 164 -166 0
166 -170 0
-32 -31 -167 0
-2 167 -169 0
169 -170 0
170 -171 0
-6 171 -174 0
174 -175 0
175 -609 0
-25 149 0
-26 149 0
-149 176 0
-27 152 0
-28 152 0
-152 176 0
-176 5 -178 0
178 -180 0
-29 165 0
-30 165 0
-165 177 0
-31 168 0
-32 168 0
-168 177 0
-177 6 -179 0
179 -180 0
180 -609 0
13 -181 0
17 -181 0
15 -183 0
18 -183 0
181 183 -185 0
-149 185 -187 0
187 -189 0
14 -182 0
17 -182 0
16 -184 0
18 -184 0
182 184 -186 0
-152 186 -188 0
188 -189 0
-5 189 -190 0
190 -201 0
13 -191 0
19 -191 0
15 -193 0
20 -193 0
191 193 -195 0
-165 195 -197 0
197 -199 0
14 -192 0
19 -192 0
16 -194 0
20 -194 0
192 194 -196 0
-168 196 -198 0
198 -199 0
-6 199 -200 0
200 -201 0
201 -609 0
1 -202 0
7 -202 0
-33 202 -206 0
206 -210 0
1 -203 0
8 -203 0
-34 203 -207 0
207 -210 0
2 -204 0
7 -204 0
-35 204 -208 0
208 -210 0
2 -205 0
8 -205 0
-36 205 -209 0
209 -210 0
210 -228 0
-34 -33 -211 0
211 -213 0
33 34 -212 0
212 -213 0
213 -217 0
-33 7 -214 0
214 -216 0
-34 8 -215 0
215 -216 0
216 -217 0
-1 217 -218 0
218 -227 0
-36 -35 -219 0
219 -221 0
35 36 -220 0
220 -221 0
221 -225 0
-35 7 -222 0
222 -224 0
-36 8 -223 0
223 -224 0
224 -225 0
-2 225 -226 0
226 -227 0
227 -228 0
228 -238 0
-33 1 -229 0
229 -231 0
-35 2 -230 0
230 -231 0
-7 231 -232 0
232 -237 0
-34 1 -233 0
233 -235 0
-36 2 -234 0
234 -235 0
-8 235 -236 0
236 -237 0
237 -238 0
238 -272 0
-37 202 -239 0
239 -243 0
-38 203 -240 0
240 -243 0
-39 204 -241 0
241 -243 0
-40 205 -242 0
242 -243 0
243 -261 0
-38 -37 -244 0
244 -246 0
37 38 -245 0
245 -246 0
246 -250 0
-37 7 -247 0
247 -249 0
-38 8 -248 0
248 -249 0
249 -250 0
-1 250 -251 0
251 -260 0
-40 -39 -252 0
252 -254 0
39 40 -253 0
253 -254 0
254 -258 0
-39 7 -255 0
255 -257 0
-40 8 -256 0
256 -257 0
257 -258 0
-2 258 -259 0
259 -260 0
260 -261 0
261 -271 0
-37 1 -262 0
262 -264 0
-39 2 -263 0
263 -264 0
-7 264 -265 0
265 -270 0
-38 1 -266 0
266 -268 0
-40 2 -267 0
267 -268 0
-8 268 -269 0
269 -270 0
270 -271 0
271 -272 0
272 -609 0
1 -275 0
5 -275 0
-41 275 -279 0
279 -283 0
1 -276 0
6 -276 0
-42 276 -280 0
280 -283 0
2 -277 0
5 -277 0
-43 277 -281 0
281 -283 0
2 -278 0
6 -278 0
-44 278 -282 0
282 -283 0
283 -289 0
-45 275 -284 0
284 -288 0
-46 276 -285 0
285 -288 0
-47 277 -286 0
286 -288 0
-48 278 -287 0
287 -288 0
288 -289 0
289 -609 0
-49 275 -296 0
296 -300 0
-50 276 -297 0
297 -300 0
-51 277 -298 0
298 -300 0
-52 278 -299 0
299 -300 0
300 -306 0
-53 275 -301 0
301 -305 0
-54 276 -302 0
302 -305 0
-55 277 -303 0
303 -305 0
-56 278 -304 0
304 -305 0
305 -306 0
306 -609 0
-57 275 -313 0
313 -317 0
-58 276 -314 0
314 -317 0
-59 277 -315 0
315 -317 0
-60 278 -316 0
316 -317 0
317 -323 0
-61 275 -318 0
318 -322 0
-62 276 -319 0
319 -322 0
-63 277 -320 0
320 -322 0
-64 278 -321 0
321 -322 0
322 -323 0
323 -609 0
-65 5 -330 0
330 -332 0
-66 6 -331 0
331 -332 0
332 -336 0
-67 5 -333 0
333 -335 0
-68 6 -334 0
334 -335 0
335 -336 0
336 -609 0
-69 275 -339 0
339 -343 0
-70 276 -340 0
340 -343 0
-71 277 -341 0
341 -343 0
-72 278 -342 0
342 -343 0
343 -349 0
-73 275 -344 0
344 -348 0
-74 276 -345 0
345 -348 0
-75 277 -346 0
346 -348 0
-76 278 -347 0
347 -348 0
348 -349 0
349 -609 0
1 -363 0
57 -363 0
-1 -57 363 0
-363 367 0
2 -365 0
59 -365 0
-2 -59 365 0
-365 367 0
363 365 -367 0
-367 -369 0
65 -369 0
367 -65 369 0
-67 369 -371 0
371 -373 0
1 -364 0
58 -364 0
-1 -58 364 0
-364 368 0
2 -366 0
60 -366 0
-2 -60 366 0
-366 368 0
364 366 -368 0
-368 -370 0
66 -370 0
368 -66 370 0
-68 370 -372 0
372 -373 0
373 -377 0
-369 67 -374 0
374 -376 0
-370 68 -375 0
375 -376 0
376 -377 0
377 -609 0
-367 65 -378 0
378 -380 0
-368 66 -379 0
379 -380 0
380 -405 0
-22 -367 382 0
-382 386 0
-24 -368 384 0
-384 386 0
-386 -404 0
-5 -1 -387 0
26 -25 388 0
-388 49 -389 0
387 389 -390 0
390 -403 0
-6 -1 -391 0
30 -29 392 0
-392 50 -393 0
391 393 -394 0
394 -403 0
-5 -2 -395 0
28 -27 396 0
-396 51 -397 0
395 397 -398 0
398 -403 0
-6 -2 -399 0
32 -31 400 0
-400 52 -401 0
399 401 -402 0
402 -403 0
403 -404 0
404 -405 0
405 -482 0
-1 -49 406 0
-406 410 0
-2 -51 408 0
-408 410 0
-26 -410 413 0
-413 421 0
-1 -50 407 0
-407 411 0
-2 -52 409 0
-409 411 0
-30 -411 417 0
-417 421 0
-1 -421 425 0
-425 429 0
-28 -410 415 0
-415 423 0
-32 -411 419 0
-419 423 0
-2 -423 427 0
-427 429 0
-429 -457 0
-17 -57 430 0
-430 434 0
-19 -58 432 0
-432 434 0
-10 -434 437 0
-437 441 0
-18 -57 431 0
-431 435 0
-20 -58 433 0
-433 435 0
-12 -435 439 0
-439 441 0
-441 -1 -442 0
442 -456 0
-17 -59 443 0
-443 447 0
-19 -60 445 0
-445 447 0
-9 -447 449 0
-449 453 0
-18 -59 444 0
-444 448 0
-20 -60 446 0
-446 448 0
-11 -448 451 0
-451 453 0
-453 -2 -455 0
455 -456 0
456 -457 0
457 -481 0
185 -459 0
-22 -458 0
-21 -458 0
458 -459 0
-41 459 -460 0
460 -462 0
-49 -45 -461 0
461 -462 0
387 462 -463 0
463 -480 0
195 -465 0
-24 -464 0
-23 -464 0
464 -465 0
-42 465 -466 0
466 -468 0
-50 -46 -467 0
467 -468 0
391 468 -469 0
469 -480 0
186 -470 0
458 -470 0
-43 470 -471 0
471 -473 0
-51 -47 -472 0
472 -473 0
395 473 -474 0
474 -480 0
196 -475 0
464 -475 0
-44 475 -476 0
476 -478 0
-52 -48 -477 0
477 -478 0
399 478 -479 0
479 -480 0
480 -481 0
481 -482 0
482 -580 0
-1 -61 483 0
-483 487 0
-2 -63 485 0
-485 487 0
-487 67 -489 0
489 -491 0
-1 -62 484 0
-484 488 0
-2 -64 486 0
-486 488 0
-488 68 -490 0
490 -491 0
491 -512 0
-21 -487 492 0
-492 496 0
-23 -488 494 0
-494 496 0
-496 -511 0
25 -26 498 0
-498 53 -499 0
387 499 -500 0
500 -510 0
29 -30 501 0
-501 54 -502 0
391 502 -503 0
503 -510 0
27 -28 504 0
-504 55 -505 0
395 505 -506 0
506 -510 0
31 -32 507 0
-507 56 -508 0
399 508 -509 0
509 -510 0
510 -511 0
511 -512 0
512 -579 0
-1 -53 513 0
-513 517 0
-2 -55 515 0
-515 517 0
-25 -517 519 0
-519 527 0
-1 -54 514 0
-514 518 0
-2 -56 516 0
-516 518 0
-29 -518 523 0
-523 527 0
-1 -527 531 0
-531 535 0
-27 -517 521 0
-521 529 0
-31 -518 525 0
-525 529 0
-2 -529 533 0
-533 535 0
-535 -564 0
-17 -61 537 0
-537 541 0
-19 -62 539 0
-539 541 0
-10 -541 544 0
-544 548 0
-18 -61 538 0
-538 542 0
-20 -62 540 0
-540 542 0
-12 -542 546 0
-546 548 0
-548 -1 -549 0
549 -563 0
-17 -63 550 0
-550 554 0
-19 -64 552 0
-552 554 0
-9 -554 556 0
-556 560 0
-18 -63 551 0
-551 555 0
-20 -64 553 0
-553 555 0
-11 -555 558 0
-558 560 0
-560 -2 -562 0
562 -563 0
563 -564 0
564 -578 0
-22 -565 0
185 -565 0
-45 565 -566 0
387 566 -567 0
567 -577 0
-24 -568 0
195 -568 0
-46 568 -569 0
391 569 -570 0
570 -577 0
-22 -571 0
186 -571 0
-47 571 -572 0
395 572 -573 0
573 -577 0
-24 -574 0
196 -574 0
-48 574 -575 0
399 575 -576 0
576 -577 0
577 -578 0
578 -579 0
579 -580 0
580 -609 0
1 -585 0
57 61 -581 0
581 -585 0
2 -587 0
59 63 -583 0
583 -587 0
585 587 -589 0
-5 589 -591 0
591 -593 0
1 -586 0
58 62 -582 0
582 -586 0
2 -588 0
60 64 -584 0
584 -588 0
586 588 -590 0
-6 590 -592 0
592 -593 0
593 -609 0
-49 41 -594 0
594 -602 0
-50 42 -595 0
595 -602 0
-51 43 -596 0
596 -602 0
-52 44 -597 0
597 -602 0
-53 45 -598 0
598 -602 0
-54 46 -599 0
599 -602 0
-55 47 -600 0
600 -602 0
-56 48 -601 0
601 -602 0
602 -609 0
-1 -2 -603 0
1 2 -603 0
-2 2 -603 0
-1 2 603 0
1 -2 603 0
2 -2 603 0
1 -604 0
2 -604 0
603 604 -605 0
605 -608 0
-603 604 -607 0
607 -608 0
608 -609 0
-7 8 -610 0
610 -628 0
-7 -8 611 0
7 8 611 0
-8 8 611 0
-33 34 -612 0
-611 612 -613 0
613 -628 0
-33 -34 614 0
33 34 614 0
-34 34 614 0
-611 -614 615 0
-35 36 -616 0
-615 616 -617 0
617 -628 0
-35 -36 618 0
35 36 618 0
-36 36 618 0
-615 -618 619 0
-37 38 -620 0
-619 620 -621 0
621 -628 0
-37 -38 622 0
37 38 622 0
-38 38 622 0
-619 -622 623 0
-39 40 -624 0
-623 624 -625 0
625 -628 0
628 -830 0
-5 6 -629 0
629 -719 0
-5 -6 630 0
5 6 630 0
-6 6 630 0
-21 23 -631 0
-630 631 -632 0
632 -719 0
-21 -23 633 0
21 23 633 0
-23 23 633 0
-630 -633 634 0
-22 24 -635 0
-634 635 -636 0
636 -719 0
-22 -24 637 0
22 24 637 0
-24 24 637 0
-634 -637 638 0
-17 19 -639 0
-638 639 -640 0
640 -719 0
-17 -19 641 0
17 19 641 0
-19 19 641 0
-638 -641 642 0
-18 20 -643 0
-642 643 -644 0
644 -719 0
-18 -20 645 0
18 20 645 0
-20 20 645 0
-642 -645 646 0
-65 66 -647 0
-646 647 -648 0
648 -719 0
-65 -66 649 0
65 66 649 0
-66 66 649 0
-646 -649 650 0
-67 68 -651 0
-650 651 -652 0
652 -719 0
-67 -68 653 0
67 68 653 0
-68 68 653 0
-650 -653 654 0
-25 29 -655 0
-654 655 -656 0
656 -719 0
-25 -29 657 0
25 29 657 0
-29 29 657 0
-654 -657 658 0
-26 30 -659 0
-658 659 -660 0
660 -719 0
-26 -30 661 0
26 30 661 0
-30 30 661 0
-658 -661 662 0
-27 31 -663 0
-662 663 -664 0
664 -719 0
-27 -31 665 0
27 31 665 0
-31 31 665 0
-662 -665 666 0
-28 32 -667 0
-666 667 -668 0
668 -719 0
-28 -32 669 0
28 32 669 0
-32 32 669 0
-666 -669 670 0
-69 70 -671 0
-670 671 -672 0
672 -719 0
-69 -70 673 0
69 70 673 0
-70 70 673 0
-670 -673 674 0
-71 72 -675 0
-674 675 -676 0
676 -719 0
-71 -72 677 0
71 72 677 0
-72 72 677 0
-674 -677 678 0
-73 74 -679 0
-678 679 -680 0
680 -719 0
-73 -74 681 0
73 74 681 0
-74 74 681 0
-678 -681 682 0
-75 76 -683 0
-682 683 -684 0
684 -719 0
-75 -76 685 0
75 76 685 0
-76 76 685 0
-682 -685 686 0
-49 50 -687 0
-686 687 -688 0
688 -719 0
-49 -50 689 0
49 50 689 0
-50 50 689 0
-686 -689 690 0
-51 52 -691 0
-690 691 -692 0
692 -719 0
-51 -52 693 0
51 52 693 0
-52 52 693 0
-690 -693 694 0
-53 54 -695 0
-694 695 -696 0
696 -719 0
-53 -54 697 0
53 54 697 0
-54 54 697 0
-694 -697 698 0
-55 56 -699 0
-698 699 -700 0
700 -719 0
-55 -56 701 0
55 56 701 0
-56 56 701 0
-698 -701 702 0
-57 58 -703 0
-702 703 -704 0
704 -719 0
-57 -58 705 0
57 58 705 0
-58 58 705 0
-702 -705 706 0
-59 60 -707 0
-706 707 -708 0
708 -719 0
-59 -60 709 0
59 60 709 0
-60 60 709 0
-706 -709 710 0
-61 62 -711 0
-710 711 -712 0
712 -719 0
-61 -62 713 0
61 62 713 0
-62 62 713 0
-710 -713 714 0
-63 64 -715 0
-714 715 -716 0
716 -719 0
719 -830 0
-3 4 -720 0
720 -746 0
-3 -4 721 0
3 4 721 0
-4 4 721 0
-17 18 -722 0
-721 722 -723 0
723 -746 0
-17 -18 724 0
17 18 724 0
-18 18 724 0
-721 -724 725 0
-19 20 -726 0
-725 726 -727 0
727 -746 0
-19 -20 728 0
19 20 728 0
-20 20 728 0
-725 -728 729 0
-9 11 -730 0
-729 730 -731 0
731 -746 0
-9 -11 732 0
9 11 732 0
-11 11 732 0
-729 -732 733 0
-10 12 -734 0
-733 734 -735 0
735 -746 0
-10 -12 736 0
10 12 736 0
-12 12 736 0
-733 -736 737 0
-13 15 -738 0
-737 738 -739 0
739 -746 0
-13 -15 740 0
13 15 740 0
-15 15 740 0
-737 -740 741 0
-14 16 -742 0
-741 742 -743 0
743 -746 0
746 -830 0
-1 2 -747 0
747 -829 0
-1 -2 748 0
1 2 748 0
-2 2 748 0
-9 10 -749 0
-748 749 -750 0
750 -829 0
-9 -10 751 0
9 10 751 0
-10 10 751 0
-748 -751 752 0
-11 12 -753 0
-752 753 -754 0
754 -829 0
-11 -12 755 0
11 12 755 0
-12 12 755 0
-752 -755 756 0
-13 14 -757 0
-756 757 -758 0
758 -829 0
-13 -14 759 0
13 14 759 0
-14 14 759 0
-756 -759 760 0
-15 16 -761 0
-760 761 -762 0
762 -829 0
-15 -16 763 0
15 16 763 0
-16 16 763 0
-760 -763 764 0
-25 27 -765 0
-764 765 -766 0
766 -829 0
-25 -27 767 0
25 27 767 0
-27 27 767 0
-764 -767 768 0
-26 28 -769 0
-768 769 -770 0
770 -829 0
-26 -28 771 0
26 28 771 0
-28 28 771 0
-768 -771 772 0
-29 31 -773 0
-772 773 -774 0
774 -829 0
-29 -31 775 0
29 31 775 0
-31 31 775 0
-772 -775 776 0
-30 32 -777 0
-776 777 -778 0
778 -829 0
-30 -32 779 0
30 32 779 0
-32 32 779 0
-776 -779 780 0
-69 71 -781 0
-780 781 -782 0
782 -829 0
-69 -71 783 0
69 71 783 0
-71 71 783 0
-780 -783 784 0
-70 72 -785 0
-784 785 -786 0
786 -829 0
-70 -72 787 0
70 72 787 0
-72 72 787 0
-784 -787 788 0
-73 75 -789 0
-788 789 -790 0
790 -829 0
-73 -75 791 0
73 75 791 0
-75 75 791 0
-788 -791 792 0
-74 76 -793 0
-792 793 -794 0
794 -829 0
-74 -76 795 0
74 76 795 0
-76 76 795 0
-792 -795 796 0
-49 51 -797 0
-796 797 -798 0
798 -829 0
-49 -51 799 0
49 51 799 0
-51 51 799 0
-796 -799 800 0
-50 52 -801 0
-800 801 -802 0
802 -829 0
-50 -52 803 0
50 52 803 0
-52 52 803 0
-800 -803 804 0
-53 55 -805 0
-804 805 -806 0
806 -829 0
-53 -55 807 0
53 55 807 0
-55 55 807 0
-804 -807 808 0
-54 56 -809 0
-808 809 -810 0
810 -829 0
-54 -56 811 0
54 56 811 0
-56 56 811 0
-808 -811 812 0
-57 59 -813 0
-812 813 -814 0
814 -829 0
-57 -59 815 0
57 59 815 0
-59 59 815 0
-812 -815 816 0
-58 60 -817 0
-816 817 -818 0
818 -829 0
-58 -60 819 0
58 60 819 0
-60 60 819 0
-816 -819 820 0
-61 63 -821 0
-820 821 -822 0
822 -829 0
-61 -63 823 0
61 63 823 0
-63 63 823 0
-820 -823 824 0
-62 64 -825 0
-824 825 -826 0
826 -829 0
829 -830 0
609 0
830 0
c ind 1 2 3 4 5 6 7 8 9 10 11 12 13 14 15 16 17 18 19 20 21 22 23 24 25 26 27 28 29 30 31 32 33 34 35 36 37 38 39 40 41 42 43 44 45 46 47 48 49 50 51 52 53 54 55 56 57 58 59 60 61 62 63 64 65 66 67 68 69 70 71 72 73 74 75 76 0
